
Gurobi 10.0.3 (linux64, gurobi_cl) logging started Thu Nov  9 12:51:54 2023

Set parameter Username
Set parameter TimeLimit to value 3600
Set parameter LogFile to value "RCPSP_1402.log"
Set parameter Threads to value 32
Academic license - for non-commercial use only - expires 2024-10-30
Using license file /home/jrivera6/gurobi-licenses/v1003/compute-0-38/gurobi.lic

Gurobi Optimizer version 10.0.3 build v10.0.3rc0 (linux64)
Copyright (c) 2023, Gurobi Optimization, LLC

Read MPS format model from file RCPSP_1402.mps
Reading time = 0.05 seconds
RCPSP_1402: 42975 rows, 17020 columns, 159179 nonzeros

CPU model: Intel(R) Xeon(R) Gold 6242 CPU @ 2.80GHz, instruction set [SSE2|AVX|AVX2|AVX512]
Thread count: 32 physical cores, 32 logical processors, using up to 32 threads

Optimize a model with 42975 rows, 17020 columns and 159179 nonzeros
Model fingerprint: 0x4882584c
Variable types: 92 continuous, 16928 integer (16928 binary)
Coefficient statistics:
  Matrix range     [1e+00, 5e+02]
  Objective range  [1e+00, 1e+00]
  Bounds range     [1e+00, 1e+00]
  RHS range        [1e+00, 5e+02]
Presolve removed 7284 rows and 1313 columns (presolve time = 5s) ...
Presolve removed 11683 rows and 3139 columns
Presolve time: 6.83s
Presolved: 31292 rows, 13881 columns, 121737 nonzeros
Variable types: 91 continuous, 13790 integer (13790 binary)

Deterministic concurrent LP optimizer: primal and dual simplex (primal and dual model)
Showing first log only...

Root relaxation presolved: 31292 rows, 13881 columns, 121737 nonzeros


Root simplex log...

Iteration    Objective       Primal Inf.    Dual Inf.      Time
       0    8.9988965e+01   2.587224e-02   1.270391e+08      8s
Concurrent spin time: 0.05s

Solved with dual simplex (primal model)

Root relaxation: objective 8.900000e+01, 4430 iterations, 0.70 seconds (0.10 work units)
Total elapsed time = 10.07s

    Nodes    |    Current Node    |     Objective Bounds      |     Work
 Expl Unexpl |  Obj  Depth IntInf | Incumbent    BestBd   Gap | It/Node Time

     0     0   89.00000    0  562          -   89.00000      -     -   12s
     0     0   89.00000    0  562          -   89.00000      -     -   12s
     0     0   89.00000    0  961          -   89.00000      -     -   27s
     0     0   89.00000    0  957          -   89.00000      -     -   28s
     0     0   89.00000    0  955          -   89.00000      -     -   28s
     0     0   89.00000    0  914          -   89.00000      -     -   31s
     0     0   89.00000    0  927          -   89.00000      -     -   32s
     0     0   89.00000    0  857          -   89.00000      -     -   32s
     0     0   89.00000    0  869          -   89.00000      -     -   46s
     0     0   89.00000    0  861          -   89.00000      -     -   47s
     0     0   89.00000    0 1047          -   89.00000      -     -   49s
     0     0   89.00000    0  993          -   89.00000      -     -   49s
     0     0   89.00000    0  719          -   89.00000      -     -   58s
     0     0   89.00000    0  792          -   89.00000      -     -   59s
     0     0   89.00000    0  978          -   89.00000      -     -   62s
     0     0   89.00000    0  963          -   89.00000      -     -   64s
     0     0   89.00000    0  921          -   89.00000      -     -   64s
H    0     0                     503.0000000   89.00000  82.3%     -   65s
     0     0   89.00000    0  998  503.00000   89.00000  82.3%     -   65s
     0     0   89.00000    0  638  503.00000   89.00000  82.3%     -   82s
     0     0   89.00000    0  634  503.00000   89.00000  82.3%     -   82s
H    0     0                     438.0000000   89.00000  79.7%     -  105s
     0     0   89.00000    0 1018  438.00000   89.00000  79.7%     -  108s
H    0     0                     419.0000000   89.00000  78.8%     -  114s
H    0     0                     414.0000000   89.00000  78.5%     -  115s
     0     0   89.00000    0  980  414.00000   89.00000  78.5%     -  115s
     0     0   89.00000    0  974  414.00000   89.00000  78.5%     -  116s
H    0     0                     394.0000000   89.00000  77.4%     -  122s
     0     0   89.00000    0  734  394.00000   89.00000  77.4%     -  127s
     0     0   89.00000    0  786  394.00000   89.00000  77.4%     -  127s
H    0     0                     344.0000000   89.00000  74.1%     -  130s
     0     0   89.00000    0  905  344.00000   89.00000  74.1%     -  134s
     0     0   89.00000    0  863  344.00000   89.00000  74.1%     -  134s
H    0     0                     334.0000000   89.00000  73.4%     -  135s
H    0     0                     325.0000000   89.00000  72.6%     -  147s
     0     0   89.00000    0  769  325.00000   89.00000  72.6%     -  150s
     0     0   89.00000    0  765  325.00000   89.00000  72.6%     -  150s
H    0     0                     284.0000000   89.00000  68.7%     -  153s
     0     0   89.00000    0 1048  284.00000   89.00000  68.7%     -  153s
     0     0   89.00000    0 1044  284.00000   89.00000  68.7%     -  154s
     0     0   89.00000    0  776  284.00000   89.00000  68.7%     -  164s
H    0     0                     271.0000000   89.00000  67.2%     -  166s
     0     0   89.00000    0 1009  271.00000   89.00000  67.2%     -  168s
H    0     0                     247.0000000   89.00000  64.0%     -  170s
     0     0   89.00000    0  681  247.00000   89.00000  64.0%     -  184s
     0     0   89.00000    0  672  247.00000   89.00000  64.0%     -  190s
H    0     0                     241.0000000   89.00000  63.1%     -  204s
     0     2   89.00000    0  638  241.00000   89.00000  63.1%     -  218s
     1     4   89.00000    1  636  241.00000   89.00000  63.1%  7166  230s
     3     7   89.00000    2 1026  241.00000   89.00000  63.1%  3384  243s
     7    13   89.00000    3 1020  241.00000   89.00000  63.1%  2383  257s
    14    23   89.00000    4 1014  241.00000   89.00000  63.1%  2001  270s
    27    34   89.00388    5 1386  241.00000   89.00388  63.1%  1545  291s
H   36    34                     236.0000000   89.00843  62.3%  1308  291s
    50    52   89.00883    6 1305  236.00000   89.00883  62.3%  1305  305s
H   82    77                     200.0000000   89.03704  55.5%  1226  512s
H   93    77                     196.0000000   89.14286  54.5%  1210  512s
H  114   107                     195.0000000   89.14286  54.3%  1122  766s
H  118   107                     194.0000000   89.57143  53.8%  1114  766s
   146   138   89.57143    9 1220  194.00000   89.57143  53.8%  1002  771s
   178   196   89.80000   10 1209  194.00000   89.80000  53.7%   843  777s
   240   239   91.00000   12 1068  194.00000   90.00000  53.6%   645  782s
   298   278   91.00000   13 1017  194.00000   90.00000  53.6%   535  790s
   356   349   99.00000   13  984  194.00000   90.00000  53.6%   471  800s
   435   407   91.00000   14 1083  194.00000   90.00000  53.6%   402  808s
   501   484   91.00000   15 1073  194.00000   90.00000  53.6%   369  815s
   593   563   91.00000   19 1067  194.00000   90.00000  53.6%   319  821s
   683   657   91.00000   21 1058  194.00000   90.00000  53.6%   282  826s
   788   736   91.00000   24 1036  194.00000   90.00000  53.6%   249  842s
   886   797   91.00000   26 1085  194.00000   90.00000  53.6%   230  852s
   951   884   91.00000   27 1084  194.00000   90.00000  53.6%   230  866s
  1056   961   91.00000   29 1098  194.00000   90.00000  53.6%   217  874s
H 1144  1015                     193.0000000   90.00000  53.4%   210  888s
  1226  1105   91.00000   32 1128  193.00000   90.00000  53.4%   204  906s
  1330  1212   92.00000   32 1108  193.00000   90.00000  53.4%   202  920s
  1453  1356   92.00000   33 1048  193.00000   90.00000  53.4%   193  931s
  1663  1483   92.00000   35 1073  193.00000   90.00000  53.4%   177  950s
  1833  1574 infeasible   36       193.00000   90.00000  53.4%   175  960s
  1937  1736   93.00000   37 1018  193.00000   90.00000  53.4%   177  977s
  2133  1909   93.00000   38  991  193.00000   90.00000  53.4%   172  996s
  2329  2071   94.00000   39 1002  193.00000   90.00000  53.4%   167 1016s
H 2445  2071                     192.0000000   90.00000  53.1%   165 1016s
H 2492  2071                     191.0000000   90.00000  52.9%   164 1016s
  2550  2191   94.00000   40  997  191.00000   90.00000  52.9%   162 1033s
  2721  2318   94.00000   41 1026  191.00000   90.00000  52.9%   163 1050s
  2880  2447   94.00000   42  987  191.00000   90.00000  52.9%   164 1070s
H 3055  2447                     190.0000000   90.00000  52.6%   165 1100s
  3056  2448  116.00000   76  998  190.00000   90.00000  52.6%   165 1133s
  3058  2449  134.00000   88  433  190.00000   90.00000  52.6%   165 1140s
  3061  2451  116.00000   95  470  190.00000   90.00000  52.6%   164 1145s
H 3061  2330                     186.0000000   90.00000  51.6%   172 1161s
  3062  2332   90.00000   12  366  186.00000   90.00000  51.6%   173 1167s
  3064  2335   90.00000   13  366  186.00000   90.00000  51.6%   173 1175s
  3068  2342   90.00000   14  366  186.00000   90.00000  51.6%   172 1188s
  3076  2355   90.00000   15  366  186.00000   90.00000  51.6%   173 1200s
H 3092  2264                     185.0000000   90.00000  51.4%   173 1210s
H 3094  2153                     184.0000000   90.00000  51.1%   173 1210s
H 3095  2047                     182.0000000   90.00000  50.5%   173 1211s
H 3102  1946                     181.0000000   90.00000  50.3%   172 1211s
H 3108  1849                     179.0000000   90.00000  49.7%   172 1211s
  3124  1875   90.00000   17  381  179.00000   90.00000  49.7%   172 1225s
  3188  1918   90.00000   18  739  179.00000   90.00000  49.7%   169 1230s
  3336  2023   90.00000   20  526  179.00000   90.00000  49.7%   163 1236s
  3474  2118   90.00000   22  461  179.00000   90.00000  49.7%   157 1242s
  3631  2213   95.00000   23  427  179.00000   90.00000  49.7%   151 1246s
  3718  2272   97.00000   24  475  179.00000   90.00000  49.7%   148 1250s
  3905  2397   91.00000   27  517  179.00000   90.00000  49.7%   142 1256s
  3968  2396   98.00000   28  619  179.00000   90.00000  49.7%   140 1275s
  4156  2486   99.00000   31  501  179.00000   90.00000  49.7%   134 1287s
H 4171  2391                     178.0000000   90.00000  49.4%   134 1287s
H 4172  2305                     177.0000000   90.00000  49.2%   134 1287s
  4282  2374   91.00000   33  511  177.00000   90.00000  49.2%   131 1306s
  4432  2483   91.00000   35  511  177.00000   90.00000  49.2%   127 1311s
  4643  2610   91.00000   38  471  177.00000   90.00000  49.2%   122 1316s
  4755  2664   91.00000   39  471  177.00000   90.00000  49.2%   119 1339s
  4853  2654 infeasible   40       177.00000   90.00000  49.2%   117 1461s
H 4886  2586                     175.0000000   90.00000  48.6%   117 1489s
  4925  2603   96.00000   41  500  175.00000   90.00000  48.6%   116 1509s
  4959  2623   91.00000   42  489  175.00000   90.00000  48.6%   115 1524s
  4992  2641  101.00000   42  490  175.00000   90.00000  48.6%   114 1543s
  5025  2661   91.00000   43  489  175.00000   90.00000  48.6%   114 1557s
  5058  2679   97.00000   43  506  175.00000   90.00000  48.6%   113 1575s
  5091  2705   91.00000   44  489  175.00000   90.00000  48.6%   112 1596s
  5128  2730   91.00000   45  489  175.00000   90.00000  48.6%   112 1617s
  5168  2891   91.00000   46  487  175.00000   90.00000  48.6%   111 1623s
  5352  2996   94.00000   48  479  175.00000   90.00000  48.6%   108 1628s
  5548  3105  106.00000   50  585  175.00000   90.00000  48.6%   104 1633s
  5737  3240   91.00000   53  473  175.00000   90.00000  48.6%   101 1639s
H 5950  3120                     173.0000000   90.00000  48.0%  98.0 1658s
H 5953  3046                     168.0000000   90.00000  46.4%  97.9 1658s
  5985  3056   95.00000   56  479  168.00000   90.00000  46.4%  97.5 1703s
  6020  3196   91.00000   57  457  168.00000   90.00000  46.4%  97.1 1720s
  6193  3386   91.00000   58  460  168.00000   90.00000  46.4%  94.9 1727s
  6449  3561   99.00000   61  549  168.00000   90.00000  46.4%  91.6 1734s
  6736  3757   91.00000   65  480  168.00000   90.00000  46.4%  88.2 1742s
  7116  3614   93.00000   69  530  168.00000   90.00000  46.4%  84.1 1769s
H 7118  3572                     166.0000000   90.00000  45.8%  84.1 1769s
H 7128  3572                     165.0000000   90.00000  45.5%  84.0 1769s
  7171  3573   91.00000   69  500  165.00000   90.00000  45.5%  83.7 1797s
  7240  4254   91.00000   70  516  165.00000   90.00000  45.5%  83.1 1807s
  8003  4702   93.00000   81  511  165.00000   90.00000  45.5%  76.3 1835s
H 8562  4854                     164.0000000   90.00000  45.1%  72.0 1845s
H 8567  4849                     161.0000000   90.00000  44.1%  71.9 1845s
  8757  4800 infeasible   92       161.00000   90.00000  44.1%  70.6 1873s
  8852  5596 infeasible   90       161.00000   90.00000  44.1%  70.0 1882s
H 9824  5799                     160.0000000   90.00000  43.8%  64.3 1891s
H 9846  5777                     159.0000000   90.00000  43.4%  64.2 1891s
 10099  5743  104.00000   51  644  159.00000   90.00000  43.4%  62.8 1926s
 10173  6146  104.00000   52  642  159.00000   90.00000  43.4%  62.5 1950s
 10716  7226  112.00000   69  645  159.00000   90.00000  43.4%  59.9 1961s
 12070  7215  112.00000  117  649  159.00000   90.00000  43.4%  54.2 1995s
H12100  7215                     159.0000000   90.00000  43.4%  54.1 1995s
H12112  7210                     158.0000000   90.00000  43.0%  54.1 1995s
 12134  8488  112.00000  118  647  158.00000   90.00000  43.0%  54.1 2006s
 13637  9561  118.00000  171  635  158.00000   90.00000  43.0%  49.3 2016s
 15052  9540  125.00000  223  570  158.00000   90.00000  43.0%  45.6 2047s
 15137 11152  125.00000  224  570  158.00000   90.00000  43.0%  45.5 2058s
 16911 12598  136.00000  255  537  158.00000   90.00000  43.0%  41.7 2072s
H18660 12306                     156.0000000   90.00000  42.3%  38.5 2106s
H18675 12281                     155.0000000   90.00000  41.9%  38.5 2106s
 18745 13963  144.00000  305  478  155.00000   90.00000  41.9%  38.5 2119s
 20710 15645  144.00000  327  492  155.00000   90.00000  41.9%  35.7 2134s
 22858 15592 infeasible  350       155.00000   90.00000  41.9%  33.0 2164s
 22961 17663  153.00000  348  432  155.00000   90.00000  41.9%  33.0 2178s
 25260 19845  153.00000  360  404  155.00000   90.00000  41.9%  30.7 2190s
H27882 20880                     155.0000000   90.00000  41.9%  28.4 2203s
 29111 20917 infeasible  378       155.00000   90.00000  41.9%  27.6 2295s
 29284 26688   90.00000   24  762  155.00000   90.00000  41.9%  27.6 2726s
H33397 26682                     154.0000000   90.00000  41.6%  25.2 2726s
 36208 27038 infeasible  234       154.00000   90.00000  41.6%  23.9 2881s
H36214 26987                     153.0000000   90.00000  41.2%  23.9 2893s
 36268 26987  103.00000   98  693  153.00000   90.00000  41.2%  23.9 2897s
 36795 34174   99.00000   58  712  153.00000   90.00000  41.2%  23.7 4064s
 37584 34174  149.00000  169  652  153.00000   90.00000  41.2%  23.5 4232s

Gurobi 10.0.3 (linux64, gurobi_cl) logging started Fri Nov 10 17:21:11 2023

Set parameter Username
Set parameter TimeLimit to value 3600
Set parameter LogFile to value "RCPSP_1402.log"
Set parameter Threads to value 32
Academic license - for non-commercial use only - expires 2024-10-30
Using license file /home/jrivera6/gurobi-licenses/v1003/compute-0-34/gurobi.lic

Gurobi Optimizer version 10.0.3 build v10.0.3rc0 (linux64)
Copyright (c) 2023, Gurobi Optimization, LLC

Read MPS format model from file RCPSP_1402.mps
Reading time = 0.14 seconds
RCPSP_1402: 42975 rows, 17020 columns, 159179 nonzeros

CPU model: Intel(R) Xeon(R) Gold 6130 CPU @ 2.10GHz, instruction set [SSE2|AVX|AVX2|AVX512]
Thread count: 32 physical cores, 32 logical processors, using up to 32 threads

Optimize a model with 42975 rows, 17020 columns and 159179 nonzeros
Model fingerprint: 0x4882584c
Variable types: 92 continuous, 16928 integer (16928 binary)
Coefficient statistics:
  Matrix range     [1e+00, 5e+02]
  Objective range  [1e+00, 1e+00]
  Bounds range     [1e+00, 1e+00]
  RHS range        [1e+00, 5e+02]
Presolve removed 7284 rows and 1313 columns (presolve time = 5s) ...
Presolve removed 11683 rows and 3139 columns
Presolve time: 7.17s
Presolved: 31292 rows, 13881 columns, 121737 nonzeros
Variable types: 91 continuous, 13790 integer (13790 binary)

Deterministic concurrent LP optimizer: primal and dual simplex (primal and dual model)
Showing first log only...

Root relaxation presolved: 31292 rows, 13881 columns, 121737 nonzeros


Root simplex log...

Iteration    Objective       Primal Inf.    Dual Inf.      Time
       0    8.9988965e+01   2.587224e-02   1.270391e+08      8s
Concurrent spin time: 0.05s

Solved with dual simplex (primal model)

Root relaxation: objective 8.900000e+01, 4430 iterations, 0.85 seconds (0.10 work units)
Total elapsed time = 10.61s

    Nodes    |    Current Node    |     Objective Bounds      |     Work
 Expl Unexpl |  Obj  Depth IntInf | Incumbent    BestBd   Gap | It/Node Time

     0     0   89.00000    0  562          -   89.00000      -     -   15s
     0     0   89.00000    0  562          -   89.00000      -     -   15s
     0     0   89.00000    0  961          -   89.00000      -     -   32s
     0     0   89.00000    0  957          -   89.00000      -     -   33s
     0     0   89.00000    0  955          -   89.00000      -     -   33s
     0     0   89.00000    0  914          -   89.00000      -     -   37s
     0     0   89.00000    0  927          -   89.00000      -     -   37s
     0     0   89.00000    0  857          -   89.00000      -     -   37s
     0     0   89.00000    0  869          -   89.00000      -     -   54s
     0     0   89.00000    0  861          -   89.00000      -     -   54s
     0     0   89.00000    0 1047          -   89.00000      -     -   57s
     0     0   89.00000    0  993          -   89.00000      -     -   57s
     0     0   89.00000    0  719          -   89.00000      -     -   68s
     0     0   89.00000    0  792          -   89.00000      -     -   69s
     0     0   89.00000    0  978          -   89.00000      -     -   72s
     0     0   89.00000    0  963          -   89.00000      -     -   74s
     0     0   89.00000    0  921          -   89.00000      -     -   74s
H    0     0                     503.0000000   89.00000  82.3%     -   76s
     0     0   89.00000    0  998  503.00000   89.00000  82.3%     -   76s
     0     0   89.00000    0  638  503.00000   89.00000  82.3%     -  118s
     0     0   89.00000    0  634  503.00000   89.00000  82.3%     -  118s
H    0     0                     438.0000000   89.00000  79.7%     -  146s
     0     0   89.00000    0 1018  438.00000   89.00000  79.7%     -  149s
H    0     0                     419.0000000   89.00000  78.8%     -  156s
H    0     0                     414.0000000   89.00000  78.5%     -  157s
     0     0   89.00000    0  980  414.00000   89.00000  78.5%     -  157s
     0     0   89.00000    0  974  414.00000   89.00000  78.5%     -  158s
H    0     0                     394.0000000   89.00000  77.4%     -  164s
     0     0   89.00000    0  734  394.00000   89.00000  77.4%     -  169s
     0     0   89.00000    0  786  394.00000   89.00000  77.4%     -  169s
H    0     0                     344.0000000   89.00000  74.1%     -  172s
     0     0   89.00000    0  905  344.00000   89.00000  74.1%     -  174s
     0     0   89.00000    0  863  344.00000   89.00000  74.1%     -  174s
H    0     0                     334.0000000   89.00000  73.4%     -  176s
H    0     0                     325.0000000   89.00000  72.6%     -  188s
     0     0   89.00000    0  769  325.00000   89.00000  72.6%     -  191s
     0     0   89.00000    0  765  325.00000   89.00000  72.6%     -  191s
H    0     0                     284.0000000   89.00000  68.7%     -  194s
     0     0   89.00000    0 1048  284.00000   89.00000  68.7%     -  194s
     0     0   89.00000    0 1044  284.00000   89.00000  68.7%     -  194s
     0     0   89.00000    0  776  284.00000   89.00000  68.7%     -  206s
H    0     0                     271.0000000   89.00000  67.2%     -  207s
     0     0   89.00000    0 1009  271.00000   89.00000  67.2%     -  209s
H    0     0                     247.0000000   89.00000  64.0%     -  211s
     0     0   89.00000    0  681  247.00000   89.00000  64.0%     -  224s
     0     0   89.00000    0  672  247.00000   89.00000  64.0%     -  229s
H    0     0                     241.0000000   89.00000  63.1%     -  242s
     0     2   89.00000    0  638  241.00000   89.00000  63.1%     -  272s
     1     4   89.00000    1  636  241.00000   89.00000  63.1%  7166  282s
     3     7   89.00000    2 1026  241.00000   89.00000  63.1%  3384  294s
     7    13   89.00000    3 1020  241.00000   89.00000  63.1%  2383  309s
    14    23   89.00000    4 1014  241.00000   89.00000  63.1%  2001  321s
    27    34   89.00388    5 1386  241.00000   89.00388  63.1%  1545  355s
H   36    34                     236.0000000   89.00843  62.3%  1308  355s
    50    52   89.00883    6 1305  236.00000   89.00883  62.3%  1305  370s
H   82    77                     200.0000000   89.03704  55.5%  1226  599s
H   93    77                     196.0000000   89.14286  54.5%  1210  599s
H  114   107                     195.0000000   89.14286  54.3%  1122  890s
H  118   107                     194.0000000   89.57143  53.8%  1114  890s
   146   138   89.57143    9 1220  194.00000   89.57143  53.8%  1002  896s
   178   196   89.80000   10 1209  194.00000   89.80000  53.7%   843  902s
   240   239   91.00000   12 1068  194.00000   90.00000  53.6%   645  909s
   298   278   91.00000   13 1017  194.00000   90.00000  53.6%   535  919s
   356   349   99.00000   13  984  194.00000   90.00000  53.6%   471  930s
   435   407   91.00000   14 1083  194.00000   90.00000  53.6%   402  941s
   501   484   91.00000   15 1073  194.00000   90.00000  53.6%   369  948s
   593   563   91.00000   19 1067  194.00000   90.00000  53.6%   319  954s
   683   657   91.00000   21 1058  194.00000   90.00000  53.6%   282  962s
   788   736   91.00000   24 1036  194.00000   90.00000  53.6%   249  983s
   886   797   91.00000   26 1085  194.00000   90.00000  53.6%   230  994s
   951   884   91.00000   27 1084  194.00000   90.00000  53.6%   230 1011s
  1056   961   91.00000   29 1098  194.00000   90.00000  53.6%   217 1021s
H 1144  1015                     193.0000000   90.00000  53.4%   210 1035s
  1226  1105   91.00000   32 1128  193.00000   90.00000  53.4%   204 1050s
  1330  1212   92.00000   32 1108  193.00000   90.00000  53.4%   202 1062s
  1453  1356   92.00000   33 1048  193.00000   90.00000  53.4%   193 1071s
  1663  1483   92.00000   35 1073  193.00000   90.00000  53.4%   177 1097s
  1833  1574 infeasible   36       193.00000   90.00000  53.4%   175 1119s
  1937  1736   93.00000   37 1018  193.00000   90.00000  53.4%   177 1162s
  2133  1909   93.00000   38  991  193.00000   90.00000  53.4%   172 1262s
  2329  2071   94.00000   39 1002  193.00000   90.00000  53.4%   167 1331s
H 2445  2071                     192.0000000   90.00000  53.1%   165 1332s
H 2492  2071                     191.0000000   90.00000  52.9%   164 1334s
  2550  2191   94.00000   40  997  191.00000   90.00000  52.9%   162 1454s
  2667  2191  110.00000   69  853  191.00000   90.00000  52.9%   161 1455s
  2721  2318   94.00000   41 1026  191.00000   90.00000  52.9%   163 1513s
  2880  2447   94.00000   42  987  191.00000   90.00000  52.9%   164 1596s
H 3055  2447                     190.0000000   90.00000  52.6%   165 1841s
  3056  2448  116.00000   76  998  190.00000   90.00000  52.6%   165 1965s
  3058  2449  134.00000   88  433  190.00000   90.00000  52.6%   165 2409s
  3059  2450   99.00000   14  470  190.00000   90.00000  52.6%   165 2435s
H 3061  2330                     186.0000000   90.00000  51.6%   172 2520s
  3062  2332   90.00000   12  366  186.00000   90.00000  51.6%   173 2568s
  3064  2335   90.00000   13  366  186.00000   90.00000  51.6%   173 2719s
  3068  2342   90.00000   14  366  186.00000   90.00000  51.6%   172 2985s
  3076  2355   90.00000   15  366  186.00000   90.00000  51.6%   173 3382s
H 3092  2265                     185.0000000   90.00000  51.4%   173 4056s
H 3094  2154                     184.0000000   90.00000  51.1%   173 4056s
H 3095  2048                     182.0000000   90.00000  50.5%   173 4057s
H 3102  1947                     181.0000000   90.00000  50.3%   172 4057s

Cutting planes:
  Learned: 6

Explored 3124 nodes (696012 simplex iterations) in 4061.62 seconds (129.31 work units)
Thread count was 32 (of 32 available processors)

Solution count 10: 181 182 184 ... 194

Time limit reached
Best objective 1.810000000000e+02, best bound 9.000000000000e+01, gap 50.2762%

Wrote result file 'RCPSP_1402.sol'

